generated by phonopy
   1.0
     7.0640000000000001    0.0000000000000000    0.0000000000000000
    -3.5320000000000005    6.1176034523332765    0.0000000000000000
     0.0000000000000000    0.0000000000000000   14.4600000000000044
Mg Si Te
   6    4   12
Direct
  0.3333333333333333  0.6666666666666665  0.4986999999999998
  0.3333333333333333  0.6666666666666666  0.0013000000000001
  0.6666666666666667  0.3333333333333333  0.5013000000000000
  0.6666666666666666  0.3333333333333333  0.9986999999999997
  0.6666666666666666  0.3333333333333333  0.2499999999999999
  0.3333333333333333  0.6666666666666666  0.7499999999999998
  0.0000000000000000  0.0000000000000000  0.4191999999999998
  0.0000000000000000  0.0000000000000000  0.0808000000000001
  0.0000000000000000  0.0000000000000000  0.5808000000000000
  0.0000000000000000  0.0000000000000000  0.9191999999999997
  0.3401999999999999  0.9989999999999997  0.3732999999999999
  0.0010000000000001  0.3412000000000000  0.3732999999999999
  0.6587999999999999  0.6597999999999999  0.3732999999999999
  0.0010000000000001  0.6597999999999999  0.1267000000000001
  0.6587999999999999  0.9989999999999997  0.1267000000000001
  0.3401999999999999  0.3412000000000000  0.1267000000000001
  0.6598000000000001  0.0010000000000001  0.6266999999999999
  0.9989999999999999  0.6587999999999998  0.6266999999999999
  0.3412000000000001  0.3401999999999999  0.6266999999999999
  0.9989999999999999  0.3401999999999999  0.8732999999999997
  0.3412000000000001  0.0010000000000001  0.8732999999999997
  0.6598000000000001  0.6587999999999998  0.8732999999999997
